n_jobs = 3;
n_machines = 3;
job_task_machine = array2d(jobs, tasks, [1, 2, 0, 2, 0, 1, 0, 2, 1]);
job_task_duration = array2d(jobs, tasks, [4, 4, 4, 4, 4, 4, 4, 4, 4]);
% deadline = array2d(jobs, 1..3, [4, 1, 1, 8, 2, 0, 12, 0, 2]);
% deadline = array2d(jobs, 1..3, [4, 1, 1, 8, 1, 1, 12, 1, 1]);
% deadline = array2d(jobs, 1..3, [4, 1, 2, 8, 1, 2, 12, 1, 2]);
deadline = array2d(jobs, 1..3, [4, 5, 5, 8, 1, 1, 12, 1, 1]);
fixed_horizon = 0..16;
optimal = 1;
